param set_len = 50;
param target_sum = 14157583256;
param values := [1] 940705054 [2] 19636428 [3] 338559253 [4] 1014925964 [5] 21728363 [6] 156740334 [7] 914753907 [8] 760195216 [9] 579268065 [10] 699830583 [11] 861399822 [12] 239296269 [13] 996712875 [14] 41902948 [15] 437628255 [16] 505929962 [17] 86441472 [18] 572917909 [19] 771618523 [20] 564280991 [21] 788925889 [22] 650166136 [23] 29070938 [24] 991930578 [25] 319429145 [26] 210124218 [27] 304459651 [28] 632412913 [29] 334340 [30] 102842441 [31] 596167360 [32] 1042702095 [33] 1071554987 [34] 508609551 [35] 1034807392 [36] 194587861 [37] 878080520 [38] 74416285 [39] 660333028 [40] 946988841 [41] 958833068 [42] 290757706 [43] 839316473 [44] 620228835 [45] 976810592 [46] 989355038 [47] 152348787 [48] 407897156 [49] 1042919508 [50] 317787573 ;
